n_res = 4;
rc = [ 0, 0, 0, 0 ];
n_tasks = 30;
d = [ 1, 2, 6, 3, 2, 10, 7, 3, 4, 5, 2, 2, 7, 1, 4, 3, 7, 5, 2, 3, 6, 8, 9, 2, 7, 2, 4, 10, 7, 6 ];
rr = [| 0, 0, 0, 0, 0, 0, 0, 0, 0, 0, 0, 0, 0, 0, 0, 0, 0, 0, 0, 0, 0, 0, 0, 0, 0, 0, 0, 0, 0, 0
      | 0, 0, 0, 0, 0, 0, 0, 0, 0, 0, 0, 0, 0, 0, 0, 0, 0, 0, 0, 0, 0, 0, 0, 0, 0, 0, 0, 0, 0, 0
      | 0, 0, 0, 0, 0, 0, 0, 0, 0, 0, 0, 0, 0, 0, 0, 0, 0, 0, 0, 0, 0, 0, 0, 0, 0, 0, 0, 0, 0, 0
      | 0, 0, 0, 0, 0, 0, 0, 0, 0, 0, 0, 0, 0, 0, 0, 0, 0, 0, 0, 0, 0, 0, 0, 0, 0, 0, 0, 0, 0, 0 |];
suc = [ { 6, 13, 17 },
       { 5, 8 },
       { 4, 12, 17 },
       { 5, 7, 9 },
       { 19, 20, 21 },
       { 10, 16, 30 },
       { 11, 14, 15 },
       { 17, 23, 24 },
       { 13, 14 },
       { 14, 15, 24 },
       { 16, 21 },
       { 15, 22, 30 },
       { 16, 20, 21 },
       { 18 },
       { 18, 25 },
       { 19, 22, 23 },
       { 18, 25, 30 },
       { 19, 20, 26 },
       { 28, 29 },
       { 29 },
       { 22, 23, 24 },
       { 25 },
       { 27, 28 },
       { 26 },
       { 26, 28 },
       { 27 },
       { 29 },
       {  },
       {  },
       {  } ];
